<?xml version = "1.0" encoding="UTF-8" standalone="yes"?>
<CPLEXSolution version="1.2">
 <header
   problemName="IloCplex"
   solutionName="p0"
   solutionIndex="-1"
   objectiveValue="-2121889280"
   solutionTypeValue="3"
   solutionTypeString="primal"
   solutionStatusValue="127"
   solutionStatusString="integer feasible solution"
   solutionMethodString="mip"
   primalFeasible="0"
   dualFeasible="0"
   writeLevel="3"/>
 <quality
   epInt="1.0000000000000001e-05"
   epRHS="9.9999999999999995e-07"
   maxIntInfeas="0"
   maxPrimalInfeas="0"
   maxX="1"
   maxSlack="1"/>
 <variables>
  <variable name="w2_7" index="25" value="1"/>
  <variable name="w4_7" index="43" value="1"/>
  <variable name="w24_7" index="223" value="1"/>
  <variable name="u7" index="232" value="1"/>
  <variable name="x0_15" index="249" value="1"/>
  <variable name="x1_2" index="492" value="1"/>
  <variable name="x2_3" index="749" value="1"/>
  <variable name="x3_19" index="1021" value="1"/>
  <variable name="x4_89" index="1347" value="1"/>
  <variable name="x5_21" index="1535" value="1"/>
  <variable name="x6_7" index="1777" value="1"/>
  <variable name="x7_22" index="2048" value="1"/>
  <variable name="x8_9" index="2291" value="1"/>
  <variable name="x9_8" index="2546" value="1"/>
  <variable name="x10_27" index="2821" value="1"/>
  <variable name="x11_12" index="3062" value="1"/>
  <variable name="x12_11" index="3317" value="1"/>
  <variable name="x13_14" index="3576" value="1"/>
  <variable name="x14_13" index="3831" value="1"/>
  <variable name="x15_31" index="4105" value="1"/>
  <variable name="x16_0" index="4330" value="1"/>
  <variable name="x17_1" index="4587" value="1"/>
  <variable name="x18_87" index="4929" value="1"/>
  <variable name="x19_35" index="5133" value="1"/>
  <variable name="x20_36" index="5390" value="1"/>
  <variable name="x21_20" index="5630" value="1"/>
  <variable name="x22_97" index="5963" value="1"/>
  <variable name="x23_24" index="6146" value="1"/>
  <variable name="x24_79" index="6457" value="1"/>
  <variable name="x25_42" index="6676" value="1"/>
  <variable name="x26_25" index="6915" value="1"/>
  <variable name="x27_28" index="7174" value="1"/>
  <variable name="x28_29" index="7431" value="1"/>
  <variable name="x29_30" index="7688" value="1"/>
  <variable name="x30_46" index="7960" value="1"/>
  <variable name="x31_16" index="8186" value="1"/>
  <variable name="x32_49" index="8475" value="1"/>
  <variable name="x33_17" index="8699" value="1"/>
  <variable name="x34_18" index="8956" value="1"/>
  <variable name="x35_34" index="9228" value="1"/>
  <variable name="x36_37" index="9487" value="1"/>
  <variable name="x37_53" index="9759" value="1"/>
  <variable name="x38_39" index="10001" value="1"/>
  <variable name="x39_38" index="10256" value="1"/>
  <variable name="x40_41" index="10515" value="1"/>
  <variable name="x41_26" index="10756" value="1"/>
  <variable name="x42_43" index="11029" value="1"/>
  <variable name="x43_44" index="11286" value="1"/>
  <variable name="x44_60" index="11558" value="1"/>
  <variable name="x45_61" index="11815" value="1"/>
  <variable name="x46_45" index="12055" value="1"/>
  <variable name="x47_32" index="12298" value="1"/>
  <variable name="x48_64" index="12586" value="1"/>
  <variable name="x49_65" index="12843" value="1"/>
  <variable name="x50_66" index="13100" value="1"/>
  <variable name="x51_50" index="13340" value="1"/>
  <variable name="x52_33" index="13579" value="1"/>
  <variable name="x53_52" index="13854" value="1"/>
  <variable name="x54_70" index="14128" value="1"/>
  <variable name="x55_56" index="14370" value="1"/>
  <variable name="x56_40" index="14610" value="1"/>
  <variable name="x57_58" index="14884" value="1"/>
  <variable name="x58_57" index="15139" value="1"/>
  <variable name="x59_75" index="15413" value="1"/>
  <variable name="x60_59" index="15653" value="1"/>
  <variable name="x61_77" index="15927" value="1"/>
  <variable name="x62_78" index="16184" value="1"/>
  <variable name="x63_47" index="16409" value="1"/>
  <variable name="x64_85" index="16703" value="1"/>
  <variable name="x65_48" index="16922" value="1"/>
  <variable name="x66_82" index="17212" value="1"/>
  <variable name="x67_51" index="17437" value="1"/>
  <variable name="x68_69" index="17711" value="1"/>
  <variable name="x69_10" index="17908" value="1"/>
  <variable name="x70_54" index="18208" value="1"/>
  <variable name="x71_55" index="18465" value="1"/>
  <variable name="x72_71" index="18737" value="1"/>
  <variable name="x73_74" index="18996" value="1"/>
  <variable name="x74_73" index="19251" value="1"/>
  <variable name="x75_91" index="19525" value="1"/>
  <variable name="x76_204" index="19894" value="1"/>
  <variable name="x77_76" index="20022" value="1"/>
  <variable name="x78_62" index="20264" value="1"/>
  <variable name="x79_95" index="20553" value="1"/>
  <variable name="x80_81" index="20795" value="1"/>
  <variable name="x81_80" index="21050" value="1"/>
  <variable name="x82_5" index="21231" value="1"/>
  <variable name="x83_67" index="21549" value="1"/>
  <variable name="x84_68" index="21806" value="1"/>
  <variable name="x85_84" index="22078" value="1"/>
  <variable name="x86_149" index="22399" value="1"/>
  <variable name="x87_86" index="22592" value="1"/>
  <variable name="x88_72" index="22834" value="1"/>
  <variable name="x89_88" index="23106" value="1"/>
  <variable name="x90_106" index="23380" value="1"/>
  <variable name="x91_90" index="23620" value="1"/>
  <variable name="x92_4" index="23790" value="1"/>
  <variable name="x93_245" index="24287" value="1"/>
  <variable name="x94_93" index="24391" value="1"/>
  <variable name="x95_92" index="24646" value="1"/>
  <variable name="x96_111" index="24921" value="1"/>
  <variable name="x97_199" index="25265" value="1"/>
  <variable name="x98_114" index="25436" value="1"/>
  <variable name="x99_118" index="25696" value="1"/>
  <variable name="x100_100" index="25934" value="1"/>
  <variable name="x101_101" index="26191" value="1"/>
  <variable name="x102_102" index="26448" value="1"/>
  <variable name="x103_104" index="26706" value="1"/>
  <variable name="x104_130" index="26988" value="1"/>
  <variable name="x105_227" index="27341" value="1"/>
  <variable name="x106_105" index="27475" value="1"/>
  <variable name="x107_108" index="27734" value="1"/>
  <variable name="x108_243" index="28125" value="1"/>
  <variable name="x109_125" index="28263" value="1"/>
  <variable name="x110_94" index="28488" value="1"/>
  <variable name="x111_110" index="28760" value="1"/>
  <variable name="x112_127" index="29033" value="1"/>
  <variable name="x113_113" index="29275" value="1"/>
  <variable name="x114_83" index="29501" value="1"/>
  <variable name="x115_115" index="29789" value="1"/>
  <variable name="x116_131" index="30061" value="1"/>
  <variable name="x117_117" index="30303" value="1"/>
  <variable name="x118_138" index="30580" value="1"/>
  <variable name="x119_119" index="30817" value="1"/>
  <variable name="x120_137" index="31091" value="1"/>
  <variable name="x121_122" index="31332" value="1"/>
  <variable name="x122_121" index="31587" value="1"/>
  <variable name="x123_123" index="31845" value="1"/>
  <variable name="x124_207" index="32185" value="1"/>
  <variable name="x125_109" index="32343" value="1"/>
  <variable name="x126_142" index="32632" value="1"/>
  <variable name="x127_112" index="32858" value="1"/>
  <variable name="x128_128" index="33130" value="1"/>
  <variable name="x129_129" index="33387" value="1"/>
  <variable name="x130_133" index="33647" value="1"/>
  <variable name="x131_147" index="33917" value="1"/>
  <variable name="x132_132" index="34158" value="1"/>
  <variable name="x133_116" index="34398" value="1"/>
  <variable name="x134_150" index="34688" value="1"/>
  <variable name="x135_134" index="34928" value="1"/>
  <variable name="x136_151" index="35201" value="1"/>
  <variable name="x137_136" index="35442" value="1"/>
  <variable name="x138_103" index="35665" value="1"/>
  <variable name="x139_140" index="35958" value="1"/>
  <variable name="x140_124" index="36198" value="1"/>
  <variable name="x141_120" index="36450" value="1"/>
  <variable name="x142_126" index="36712" value="1"/>
  <variable name="x143_141" index="36983" value="1"/>
  <variable name="x144_144" index="37242" value="1"/>
  <variable name="x145_161" index="37515" value="1"/>
  <variable name="x146_145" index="37755" value="1"/>
  <variable name="x147_163" index="38029" value="1"/>
  <variable name="x148_148" index="38270" value="1"/>
  <variable name="x149_195" index="38573" value="1"/>
  <variable name="x150_99" index="38733" value="1"/>
  <variable name="x151_135" index="39025" value="1"/>
  <variable name="x152_152" index="39298" value="1"/>
  <variable name="x153_153" index="39555" value="1"/>
  <variable name="x154_155" index="39813" value="1"/>
  <variable name="x155_156" index="40070" value="1"/>
  <variable name="x156_173" index="40343" value="1"/>
  <variable name="x157_157" index="40583" value="1"/>
  <variable name="x158_159" index="40841" value="1"/>
  <variable name="x159_143" index="41081" value="1"/>
  <variable name="x160_160" index="41354" value="1"/>
  <variable name="x161_162" index="41612" value="1"/>
  <variable name="x162_177" index="41883" value="1"/>
  <variable name="x163_165" index="42127" value="1"/>
  <variable name="x164_98" index="42316" value="1"/>
  <variable name="x165_166" index="42640" value="1"/>
  <variable name="x166_182" index="42912" value="1"/>
  <variable name="x167_63" index="43049" value="1"/>
  <variable name="x168_168" index="43410" value="1"/>
  <variable name="x169_186" index="43684" value="1"/>
  <variable name="x170_170" index="43924" value="1"/>
  <variable name="x171_187" index="44197" value="1"/>
  <variable name="x172_188" index="44454" value="1"/>
  <variable name="x173_172" index="44694" value="1"/>
  <variable name="x174_158" index="44936" value="1"/>
  <variable name="x175_96" index="45130" value="1"/>
  <variable name="x176_192" index="45482" value="1"/>
  <variable name="x177_164" index="45710" value="1"/>
  <variable name="x178_178" index="45980" value="1"/>
  <variable name="x179_179" index="46237" value="1"/>
  <variable name="x180_181" index="46495" value="1"/>
  <variable name="x181_197" index="46767" value="1"/>
  <variable name="x182_23" index="46849" value="1"/>
  <variable name="x183_183" index="47265" value="1"/>
  <variable name="x184_184" index="47522" value="1"/>
  <variable name="x185_169" index="47763" value="1"/>
  <variable name="x186_185" index="48035" value="1"/>
  <variable name="x187_171" index="48277" value="1"/>
  <variable name="x188_189" index="48551" value="1"/>
  <variable name="x189_205" index="48823" value="1"/>
  <variable name="x190_206" index="49080" value="1"/>
  <variable name="x191_191" index="49321" value="1"/>
  <variable name="x192_193" index="49579" value="1"/>
  <variable name="x193_174" index="49816" value="1"/>
  <variable name="x194_176" index="50074" value="1"/>
  <variable name="x195_194" index="50348" value="1"/>
  <variable name="x196_180" index="50590" value="1"/>
  <variable name="x197_198" index="50864" value="1"/>
  <variable name="x198_214" index="51136" value="1"/>
  <variable name="x199_200" index="51378" value="1"/>
  <variable name="x200_201" index="51635" value="1"/>
  <variable name="x201_154" index="51844" value="1"/>
  <variable name="x202_203" index="52149" value="1"/>
  <variable name="x203_202" index="52404" value="1"/>
  <variable name="x204_221" index="52679" value="1"/>
  <variable name="x205_175" index="52889" value="1"/>
  <variable name="x206_190" index="53160" value="1"/>
  <variable name="x207_196" index="53422" value="1"/>
  <variable name="x208_223" index="53705" value="1"/>
  <variable name="x209_209" index="53947" value="1"/>
  <variable name="x210_210" index="54204" value="1"/>
  <variable name="x211_211" index="54461" value="1"/>
  <variable name="x212_139" index="54645" value="1"/>
  <variable name="x213_229" index="54991" value="1"/>
  <variable name="x214_213" index="55231" value="1"/>
  <variable name="x215_231" index="55505" value="1"/>
  <variable name="x216_216" index="55746" value="1"/>
  <variable name="x217_218" index="56004" value="1"/>
  <variable name="x218_217" index="56259" value="1"/>
  <variable name="x219_219" index="56517" value="1"/>
  <variable name="x220_146" index="56700" value="1"/>
  <variable name="x221_220" index="57030" value="1"/>
  <variable name="x222_238" index="57304" value="1"/>
  <variable name="x223_222" index="57544" value="1"/>
  <variable name="x224_208" index="57786" value="1"/>
  <variable name="x225_107" index="57941" value="1"/>
  <variable name="x226_226" index="58316" value="1"/>
  <variable name="x227_228" index="58574" value="1"/>
  <variable name="x228_212" index="58814" value="1"/>
  <variable name="x229_230" index="59088" value="1"/>
  <variable name="x230_6" index="59120" value="1"/>
  <variable name="x231_215" index="59585" value="1"/>
  <variable name="x232_232" index="59858" value="1"/>
  <variable name="x233_234" index="60116" value="1"/>
  <variable name="x234_167" index="60305" value="1"/>
  <variable name="x235_235" index="60629" value="1"/>
  <variable name="x236_252" index="60902" value="1"/>
  <variable name="x237_237" index="61143" value="1"/>
  <variable name="x238_239" index="61401" value="1"/>
  <variable name="x239_224" index="61642" value="1"/>
  <variable name="x240_240" index="61914" value="1"/>
  <variable name="x241_225" index="62155" value="1"/>
  <variable name="x242_241" index="62427" value="1"/>
  <variable name="x243_242" index="62684" value="1"/>
  <variable name="x244_244" index="62942" value="1"/>
  <variable name="x245_246" index="63200" value="1"/>
  <variable name="x246_247" index="63457" value="1"/>
  <variable name="x247_249" index="63715" value="1"/>
  <variable name="x248_248" index="63970" value="1"/>
  <variable name="x249_233" index="64211" value="1"/>
  <variable name="x250_250" index="64484" value="1"/>
  <variable name="x251_251" index="64741" value="1"/>
  <variable name="x252_236" index="64982" value="1"/>
  <variable name="x253_253" index="65255" value="1"/>
  <variable name="x254_254" index="65512" value="1"/>
  <variable name="x255_255" index="65769" value="1"/>
  <variable name="k2" index="65772" value="1"/>
  <variable name="k4" index="65774" value="1"/>
  <variable name="k24" index="65794" value="1"/>
 </variables>
</CPLEXSolution>
